p edge 40 124
e 1 4
e 1 9
e 1 18
e 1 19
e 1 22
e 1 29
e 1 33
e 1 36
e 1 40
e 2 7
e 2 9
e 2 11
e 2 21
e 2 30
e 2 34
e 3 4
e 3 6
e 3 20
e 3 25
e 3 31
e 3 33
e 3 38
e 4 11
e 4 12
e 4 19
e 4 21
e 4 23
e 5 13
e 5 14
e 5 21
e 5 22
e 5 36
e 5 38
e 6 8
e 6 10
e 6 25
e 6 26
e 6 37
e 7 21
e 7 25
e 7 33
e 8 17
e 8 29
e 8 31
e 8 32
e 8 33
e 8 36
e 8 39
e 9 12
e 9 16
e 9 20
e 9 26
e 9 28
e 9 35
e 10 11
e 10 22
e 10 23
e 10 29
e 10 31
e 10 37
e 11 15
e 11 19
e 11 27
e 11 32
e 11 34
e 11 38
e 11 39
e 12 14
e 12 18
e 12 20
e 12 22
e 12 23
e 12 31
e 13 18
e 13 32
e 13 36
e 13 40
e 14 27
e 15 16
e 15 31
e 15 35
e 16 24
e 16 25
e 16 29
e 16 37
e 17 21
e 17 29
e 18 30
e 18 31
e 18 35
e 18 36
e 19 20
e 19 21
e 19 30
e 19 31
e 19 34
e 19 36
e 19 39
e 19 40
e 20 24
e 20 27
e 20 30
e 20 33
e 20 34
e 21 36
e 22 27
e 22 29
e 22 38
e 23 30
e 25 27
e 25 31
e 25 35
e 25 37
e 26 34
e 26 37
e 27 33
e 27 38
e 28 32
e 28 37
e 29 35
e 33 40
e 34 39
e 34 40
e 37 38